
%FILE DATA:	Soccer Computational Problem for MiniZinc Models	%
%AUTHOR:	Jack Wall	%
%CONTACT:  	116397063@umail.ucc.ie			%
%LAST UPDATE:	03/03/2020, 12:12:28						%
%DESCRIPTION: 	63 games played with 9 games left				%


n=9; %number of teams

%Games to play
games=[|3,4|5,8|1,5|6,1|1,9|3,9|3,8|5,7|9,8|];

%Initial points
iPoints=[17,21,18,23,21,16,25,13,19];

%POSITION CONSTRAINTS
% [|teamID, operator, position|...]
% operators index:
%  1 for =  operator
%  2 for >  operator
%  3 for >= operator
%  4 for <  operator
%  5 for <= operator
positionConstraints=[|7,3,1|5,1,2|9,1,3|4,1,4|];